(declare-const term_to_project_onto0 Real)
(declare-const term_to_project_onto Real)
(declare-const term_to_project_onto1 Real)
(assert (exists
         ((|n'?1| Int) (|flag'?2| Int) (|__cost'?3| Int) (phi_n?4 Int)
            (phi_flag?5 Int) (n?6 Int) (flag?7 Int) (__cost?8 Int))
         (and (<= (- flag?7) 0) (<= (+ (- flag?7) 1) 0) (<= (- __cost?8) 0)
                (<= (+ (- __cost?8) -1) 0)
                (or (and (<= n?6 0) (= (- phi_flag?5) 0)
                           (= (+ (- phi_n?4) n?6) 0))
                      (and (<= (+ (- n?6) 1) 0) (= (+ (- phi_flag?5) 1) 0)
                             (= (+ (- phi_n?4) n?6 -1) 0)))
                (= (+ |n'?1| (- phi_n?4)) 0)
                (= (+ |flag'?2| (- phi_flag?5)) 0)
                (= (+ |__cost'?3| (- __cost?8) -1) 0)
                (= term_to_project_onto1 (+ |__cost'?3| (- __cost?8)))
                (= term_to_project_onto0 (+ |flag'?2| (- flag?7)))
                (= term_to_project_onto (+ |n'?1| (- n?6))))))
(check-sat)
